language ESSENCE' 1.0

letting graph_FunctionNDPartial_Flags be
        [[false, true, true; int(1..3)], [true, false, true; int(1..3)], [true, true, false; int(1..3)]; int(1..3)]
$ Visualisation for graph_FunctionNDPartial_Flags
$ _ T T
$ T _ T
$ T T _

letting graph_FunctionNDPartial_Values be [[1, 2, 2; int(1..3)], [2, 1, 2; int(1..3)], [2, 2, 1; int(1..3)]; int(1..3)]
$ Visualisation for graph_FunctionNDPartial_Values
$ 1 2 2
$ 2 1 2
$ 2 2 1

